
Gurobi 12.0.2 (win64, gurobi_cl) logging started Wed Aug 27 15:46:56 2025

Set parameter Username
Set parameter LicenseID to value 2680440
Set parameter LogFile to value "gurobi.log"
Using license file c:\gurobi\gurobi.lic
Academic license - for non-commercial use only - expires 2026-06-23
